
Gurobi 6.5.2 (win64) logging started 07/22/16 20:23:11


Gurobi 6.5.2 (win64) logging started 07/22/16 20:23:11

Optimize a model with 657 rows, 180 columns and 1452 nonzeros
Coefficient statistics:
  Matrix range    [1e+00, 1e+00]
  Objective range [2e+00, 3e+02]
  Bounds range    [1e+00, 1e+00]
  RHS range       [1e+00, 1e+00]
Found heuristic solution: objective -0
Presolve removed 621 rows and 92 columns
Presolve time: 0.02s
Presolved: 36 rows, 88 columns, 222 nonzeros
Found heuristic solution: objective 1089.0000000
Variable types: 0 continuous, 88 integer (88 binary)

Root relaxation: objective 1.305000e+03, 33 iterations, 0.00 seconds

    Nodes    |    Current Node    |     Objective Bounds      |     Work
 Expl Unexpl |  Obj  Depth IntInf | Incumbent    BestBd   Gap | It/Node Time

*    0     0               0    1305.0000000 1305.00000  0.00%     -    0s

Explored 0 nodes (33 simplex iterations) in 0.02 seconds
Thread count was 8 (of 8 available processors)

Optimal solution found (tolerance 1.00e-04)
Best objective 1.305000000000e+03, best bound 1.305000000000e+03, gap 0.0%

Wrote requested result file 'H1\instance2\\Results2.lp'


Gurobi 6.5.2 (win64) logging started 07/22/16 21:03:06


Gurobi 6.5.2 (win64) logging started 07/22/16 21:03:06

Optimize a model with 657 rows, 180 columns and 1452 nonzeros
Coefficient statistics:
  Matrix range    [1e+00, 1e+00]
  Objective range [2e+00, 3e+02]
  Bounds range    [1e+00, 1e+00]
  RHS range       [1e+00, 1e+00]
Found heuristic solution: objective -0
Presolve removed 621 rows and 92 columns
Presolve time: 0.00s
Presolved: 36 rows, 88 columns, 222 nonzeros
Found heuristic solution: objective 1089.0000000
Variable types: 0 continuous, 88 integer (88 binary)

Root relaxation: objective 1.305000e+03, 33 iterations, 0.00 seconds

    Nodes    |    Current Node    |     Objective Bounds      |     Work
 Expl Unexpl |  Obj  Depth IntInf | Incumbent    BestBd   Gap | It/Node Time

*    0     0               0    1305.0000000 1305.00000  0.00%     -    0s

Explored 0 nodes (33 simplex iterations) in 0.00 seconds
Thread count was 8 (of 8 available processors)

Optimal solution found (tolerance 1.00e-04)
Best objective 1.305000000000e+03, best bound 1.305000000000e+03, gap 0.0%

Wrote requested result file 'H1\instance2\\Results2.lp'

